32
0	0
1	0
2	0
3	208
4	210
5	4
6	216
7	1730
8	503
9	6
10	937
11	6
12	206
13	2
14	618
15	1558
16	210
17	1564
18	1093
19	226
20	0
21	1668
22	1093
23	1193
24	1899
25	1902
26	1564
27	213
28	1332
29	1909
30	1906
31	1911
